nodes = 720;
edges = 1794;
starts = [1, 1, 2, 2, 3, 3, 3, 4, 4, 5, 5, 5, 6, 6, 7, 7, 8, 8, 9, 9, 9, 10, 10, 11, 11, 11, 12, 12, 13, 13, 13, 14, 15, 15, 16, 16, 17, 17, 17, 18, 19, 20, 21, 21, 22, 22, 23, 23, 23, 24, 24, 25, 25, 25, 26, 26, 27, 27, 27, 28, 28, 29, 29, 29, 30, 30, 31, 31, 31, 32, 32, 33, 33, 33, 34, 35, 35, 36, 36, 37, 37, 38, 38, 39, 39, 40, 40, 41, 41, 41, 42, 42, 43, 43, 44, 44, 45, 45, 45, 46, 46, 46, 47, 47, 47, 48, 48, 48, 49, 49, 50, 51, 51, 52, 52, 52, 53, 53, 54, 54, 54, 55, 55, 56, 56, 57, 57, 58, 58, 59, 59, 59, 60, 60, 61, 61, 62, 62, 62, 63, 63, 63, 64, 64, 64, 65, 65, 65, 66, 66, 66, 67, 67, 68, 68, 68, 69, 69, 69, 70, 70, 70, 71, 71, 71, 72, 72, 73, 73, 74, 74, 74, 75, 75, 76, 77, 77, 77, 78, 78, 78, 79, 79, 79, 80, 80, 80, 81, 81, 81, 82, 82, 83, 83, 84, 84, 85, 85, 85, 86, 86, 86, 87, 87, 87, 88, 88, 88, 89, 89, 89, 90, 90, 91, 91, 92, 92, 93, 93, 94, 94, 95, 96, 97, 97, 98, 98, 99, 99, 99, 100, 100, 100, 101, 101, 102, 103, 103, 104, 104, 104, 105, 105, 106, 106, 106, 107, 107, 107, 108, 108, 109, 109, 109, 110, 110, 110, 111, 111, 111, 112, 112, 112, 113, 113, 114, 115, 115, 115, 116, 116, 116, 117, 117, 117, 118, 118, 118, 119, 119, 119, 120, 120, 121, 121, 122, 123, 123, 124, 124, 124, 125, 125, 125, 126, 126, 126, 127, 127, 127, 128, 128, 129, 129, 129, 130, 130, 130, 131, 131, 131, 132, 132, 133, 133, 134, 135, 135, 136, 136, 136, 137, 137, 137, 138, 138, 138, 139, 139, 140, 140, 140, 141, 141, 142, 142, 143, 143, 143, 144, 144, 144, 145, 145, 145, 146, 146, 147, 147, 147, 148, 148, 148, 149, 149, 150, 150, 151, 151, 152, 152, 153, 153, 153, 154, 154, 154, 155, 155, 155, 156, 156, 156, 157, 157, 157, 158, 158, 158, 159, 159, 159, 160, 160, 161, 161, 161, 162, 162, 163, 163, 163, 164, 164, 164, 165, 165, 166, 167, 167, 167, 168, 168, 168, 169, 169, 169, 170, 170, 170, 171, 171, 171, 172, 172, 172, 173, 173, 174, 174, 174, 175, 175, 176, 176, 177, 178, 178, 179, 179, 179, 180, 180, 180, 181, 181, 181, 182, 182, 182, 183, 183, 183, 184, 184, 184, 185, 185, 185, 186, 186, 187, 187, 188, 188, 188, 189, 189, 190, 190, 191, 191, 191, 192, 192, 192, 193, 193, 193, 194, 194, 194, 195, 195, 195, 196, 196, 196, 197, 197, 197, 198, 198, 199, 199, 199, 200, 200, 201, 201, 201, 202, 202, 202, 203, 203, 203, 204, 204, 205, 205, 205, 206, 206, 206, 207, 207, 207, 208, 208, 208, 209, 209, 209, 210, 210, 210, 211, 211, 211, 212, 212, 212, 213, 213, 213, 214, 214, 214, 215, 215, 216, 216, 217, 217, 217, 218, 218, 219, 219, 220, 220, 221, 221, 222, 222, 222, 223, 223, 223, 224, 224, 225, 225, 226, 226, 226, 227, 227, 228, 228, 229, 229, 230, 230, 231, 231, 231, 232, 232, 232, 233, 233, 233, 234, 234, 234, 235, 235, 235, 236, 236, 236, 237, 237, 237, 238, 238, 238, 239, 239, 239, 240, 240, 240, 241, 241, 241, 242, 242, 242, 243, 243, 243, 244, 244, 244, 245, 245, 245, 246, 246, 246, 247, 247, 247, 248, 248, 248, 249, 249, 249, 250, 250, 251, 251, 251, 252, 252, 253, 253, 253, 254, 254, 254, 255, 255, 255, 256, 256, 257, 257, 258, 258, 258, 259, 259, 259, 260, 260, 260, 261, 261, 261, 262, 262, 263, 263, 264, 264, 264, 265, 265, 266, 266, 267, 267, 267, 268, 268, 269, 270, 270, 271, 271, 271, 272, 272, 272, 273, 273, 274, 274, 275, 275, 275, 276, 276, 276, 277, 277, 277, 278, 278, 278, 279, 279, 280, 280, 280, 281, 281, 281, 282, 282, 282, 283, 283, 284, 284, 285, 285, 285, 286, 286, 286, 287, 287, 288, 289, 289, 289, 290, 291, 291, 292, 292, 292, 293, 293, 293, 294, 294, 294, 295, 295, 295, 296, 296, 296, 297, 297, 297, 298, 298, 298, 299, 299, 299, 300, 300, 300, 301, 301, 301, 302, 302, 302, 303, 304, 304, 305, 305, 305, 306, 306, 306, 307, 307, 308, 308, 309, 309, 309, 310, 310, 311, 311, 311, 312, 312, 312, 313, 313, 313, 314, 314, 315, 315, 316, 316, 316, 317, 317, 318, 318, 319, 319, 320, 320, 320, 321, 321, 321, 322, 322, 322, 323, 323, 323, 324, 324, 324, 325, 325, 325, 326, 326, 326, 327, 327, 327, 328, 328, 329, 329, 330, 330, 330, 331, 331, 331, 332, 332, 332, 333, 333, 333, 334, 334, 335, 335, 335, 336, 336, 336, 337, 337, 337, 338, 338, 339, 339, 339, 340, 340, 340, 341, 342, 342, 343, 343, 343, 344, 344, 344, 345, 345, 345, 346, 346, 346, 347, 347, 347, 348, 348, 349, 349, 349, 350, 350, 350, 351, 351, 351, 352, 352, 352, 353, 353, 353, 354, 354, 354, 355, 355, 356, 356, 356, 357, 357, 358, 358, 358, 359, 359, 359, 360, 360, 360, 361, 361, 361, 362, 362, 362, 363, 363, 364, 364, 365, 365, 365, 366, 366, 366, 367, 367, 368, 368, 368, 369, 369, 369, 370, 370, 370, 371, 371, 371, 372, 372, 373, 373, 373, 374, 374, 374, 375, 376, 377, 377, 377, 378, 378, 379, 380, 381, 381, 381, 382, 382, 382, 383, 383, 383, 384, 384, 385, 385, 386, 386, 386, 387, 387, 387, 388, 388, 389, 389, 389, 390, 390, 390, 391, 391, 391, 392, 392, 392, 393, 393, 394, 394, 395, 395, 396, 396, 396, 397, 397, 397, 398, 398, 399, 399, 400, 400, 401, 401, 402, 402, 402, 403, 403, 403, 404, 404, 404, 405, 405, 406, 406, 406, 407, 407, 407, 408, 408, 409, 409, 409, 410, 410, 411, 411, 412, 412, 413, 413, 414, 414, 414, 415, 415, 415, 416, 416, 416, 417, 417, 418, 419, 419, 419, 420, 420, 420, 421, 421, 421, 422, 422, 422, 423, 423, 423, 424, 424, 425, 426, 427, 427, 428, 428, 428, 429, 429, 429, 430, 430, 430, 431, 431, 432, 432, 433, 433, 433, 434, 434, 434, 435, 435, 435, 436, 436, 436, 437, 437, 437, 438, 438, 438, 439, 439, 440, 440, 440, 441, 441, 441, 442, 442, 442, 443, 443, 443, 444, 444, 444, 445, 445, 446, 446, 447, 447, 447, 448, 449, 450, 450, 451, 451, 452, 452, 453, 453, 453, 454, 454, 454, 455, 455, 456, 456, 457, 457, 458, 458, 459, 459, 459, 460, 460, 460, 461, 461, 461, 462, 462, 462, 463, 463, 463, 464, 464, 464, 465, 465, 466, 466, 466, 467, 467, 467, 468, 468, 469, 469, 470, 470, 471, 471, 471, 472, 472, 472, 473, 473, 473, 474, 474, 474, 475, 475, 475, 476, 476, 476, 477, 477, 478, 478, 478, 479, 479, 479, 480, 480, 481, 481, 481, 482, 482, 483, 484, 484, 484, 485, 485, 485, 486, 486, 486, 487, 487, 487, 488, 488, 488, 489, 489, 489, 490, 490, 490, 491, 491, 491, 492, 492, 492, 493, 493, 494, 495, 495, 496, 496, 496, 497, 497, 497, 498, 498, 498, 499, 499, 500, 500, 500, 501, 501, 501, 502, 502, 502, 503, 503, 504, 504, 504, 505, 505, 505, 506, 506, 507, 507, 507, 508, 508, 509, 509, 510, 510, 511, 511, 512, 512, 512, 513, 513, 513, 514, 514, 514, 515, 515, 516, 517, 518, 518, 519, 519, 520, 520, 521, 521, 521, 522, 522, 522, 523, 523, 524, 524, 525, 525, 526, 526, 527, 527, 527, 528, 528, 528, 529, 529, 529, 530, 530, 530, 531, 531, 532, 532, 533, 533, 533, 534, 534, 534, 535, 535, 535, 536, 536, 536, 537, 537, 538, 538, 538, 539, 539, 539, 540, 540, 541, 542, 542, 542, 543, 543, 543, 544, 544, 545, 545, 546, 546, 547, 548, 548, 549, 549, 549, 550, 550, 550, 551, 551, 551, 552, 553, 553, 554, 554, 554, 555, 555, 556, 556, 556, 557, 557, 557, 558, 558, 559, 559, 560, 560, 561, 561, 561, 562, 562, 562, 563, 563, 563, 564, 564, 564, 565, 565, 565, 566, 566, 566, 567, 567, 567, 568, 568, 569, 569, 570, 570, 571, 571, 572, 572, 573, 573, 574, 574, 574, 575, 575, 575, 576, 576, 577, 577, 578, 578, 578, 579, 579, 579, 580, 580, 580, 581, 581, 581, 582, 582, 583, 583, 584, 584, 585, 585, 585, 586, 586, 587, 587, 588, 588, 588, 589, 589, 589, 590, 590, 591, 591, 591, 592, 592, 592, 593, 593, 594, 594, 595, 595, 595, 596, 596, 597, 597, 597, 598, 598, 598, 599, 599, 600, 600, 600, 601, 601, 601, 602, 602, 602, 603, 603, 603, 604, 604, 604, 605, 605, 605, 606, 606, 607, 607, 608, 608, 609, 609, 609, 610, 611, 612, 612, 612, 613, 613, 613, 614, 614, 615, 615, 616, 616, 617, 617, 617, 618, 618, 618, 619, 619, 619, 620, 620, 621, 621, 622, 622, 623, 623, 623, 624, 624, 625, 625, 625, 626, 626, 627, 627, 627, 628, 628, 628, 629, 629, 629, 630, 630, 630, 631, 631, 632, 632, 633, 633, 633, 634, 634, 634, 635, 635, 635, 636, 636, 636, 637, 637, 638, 638, 638, 639, 639, 639, 640, 640, 641, 641, 642, 642, 642, 643, 643, 643, 644, 644, 644, 645, 645, 646, 646, 647, 647, 647, 648, 648, 649, 649, 649, 650, 650, 650, 651, 651, 651, 652, 652, 653, 653, 654, 654, 654, 655, 655, 655, 656, 656, 656, 657, 657, 658, 658, 659, 659, 659, 660, 660, 660, 661, 661, 662, 663, 663, 663, 664, 664, 665, 665, 665, 666, 666, 666, 667, 667, 667, 668, 668, 668, 669, 669, 669, 670, 670, 670, 671, 671, 672, 672, 673, 673, 674, 674, 675, 675, 676, 677, 677, 678, 678, 678, 679, 679, 679, 680, 680, 680, 681, 681, 682, 682, 682, 683, 683, 684, 684, 685, 685, 686, 686, 686, 687, 688, 688, 689, 689, 690, 690, 691, 691, 692, 692, 692, 693, 693, 694, 694, 695, 695, 696, 696, 696, 697, 697, 698, 698, 698, 699, 699, 700, 700, 701, 702, 702, 702, 703, 703, 704, 704, 704, 705, 706, 706, 707, 707, 708, 708, 709, 710, 710, 710, 711, 711, 712, 712, 712, 713, 713, 714, 714, 714, 715, 715, 716, 716, 717, 718, 718, 719, 719, 720, 720];
ends = [2, 38, 1, 3, 2, 4, 40, 3, 5, 4, 6, 42, 5, 7, 6, 8, 7, 9, 8, 10, 46, 9, 11, 10, 12, 48, 11, 13, 12, 14, 50, 13, 16, 52, 15, 17, 16, 18, 54, 17, 56, 21, 20, 22, 21, 23, 22, 24, 60, 23, 25, 24, 26, 62, 25, 27, 26, 28, 64, 27, 29, 28, 30, 66, 29, 31, 30, 32, 68, 31, 33, 32, 34, 70, 33, 36, 72, 35, 37, 36, 74, 1, 39, 38, 77, 3, 41, 40, 42, 79, 5, 41, 44, 81, 43, 45, 44, 46, 83, 9, 45, 47, 46, 48, 85, 11, 47, 49, 48, 87, 13, 52, 89, 15, 51, 53, 52, 54, 17, 53, 55, 54, 93, 19, 57, 56, 58, 57, 59, 58, 60, 97, 23, 59, 62, 99, 25, 61, 63, 62, 64, 101, 27, 63, 65, 64, 66, 103, 29, 65, 67, 66, 68, 31, 67, 69, 68, 70, 107, 33, 69, 71, 70, 72, 109, 35, 71, 74, 111, 37, 73, 75, 74, 113, 77, 39, 76, 78, 77, 79, 116, 41, 78, 80, 79, 81, 118, 43, 80, 82, 81, 120, 45, 84, 83, 85, 47, 84, 86, 85, 87, 124, 49, 86, 88, 87, 89, 126, 51, 88, 90, 89, 91, 90, 92, 91, 130, 55, 94, 93, 95, 94, 97, 59, 96, 99, 136, 61, 98, 100, 99, 101, 138, 63, 100, 140, 65, 104, 103, 105, 142, 104, 106, 105, 107, 144, 69, 106, 108, 107, 109, 71, 108, 110, 109, 111, 148, 73, 110, 112, 111, 113, 150, 75, 112, 115, 114, 116, 153, 78, 115, 117, 116, 118, 155, 80, 117, 119, 118, 120, 157, 82, 119, 122, 159, 121, 124, 161, 86, 123, 125, 124, 126, 163, 88, 125, 127, 126, 128, 165, 127, 129, 128, 130, 167, 92, 129, 131, 130, 132, 169, 131, 133, 132, 171, 135, 134, 136, 98, 135, 137, 136, 138, 175, 100, 137, 139, 138, 140, 102, 139, 141, 140, 179, 104, 143, 142, 144, 181, 106, 143, 145, 144, 146, 183, 145, 147, 146, 148, 185, 110, 147, 149, 148, 187, 112, 151, 150, 189, 153, 190, 115, 152, 154, 153, 155, 192, 117, 154, 156, 155, 157, 194, 119, 156, 158, 157, 159, 196, 121, 158, 160, 159, 161, 123, 160, 162, 161, 163, 125, 162, 164, 163, 165, 202, 127, 164, 167, 129, 166, 168, 167, 169, 206, 131, 168, 170, 169, 171, 208, 133, 170, 172, 171, 173, 210, 172, 174, 173, 175, 212, 137, 174, 177, 214, 176, 179, 216, 141, 178, 180, 179, 181, 218, 143, 180, 182, 181, 183, 220, 145, 182, 184, 183, 185, 222, 147, 184, 186, 185, 224, 149, 188, 187, 189, 226, 151, 188, 152, 191, 190, 192, 229, 154, 191, 193, 192, 194, 231, 156, 193, 195, 194, 196, 233, 158, 195, 197, 196, 198, 235, 197, 199, 198, 200, 237, 199, 201, 200, 202, 239, 164, 201, 203, 202, 204, 241, 203, 205, 204, 206, 243, 168, 205, 207, 206, 208, 245, 170, 207, 209, 208, 210, 247, 172, 209, 211, 210, 212, 249, 174, 211, 213, 212, 214, 251, 176, 213, 215, 214, 253, 178, 217, 216, 218, 255, 180, 217, 220, 257, 182, 219, 222, 259, 184, 221, 223, 222, 224, 261, 186, 223, 226, 263, 188, 225, 227, 226, 265, 229, 266, 191, 228, 231, 268, 193, 230, 232, 231, 233, 270, 195, 232, 234, 233, 235, 272, 197, 234, 236, 235, 237, 274, 199, 236, 238, 237, 239, 276, 201, 238, 240, 239, 241, 278, 203, 240, 242, 241, 243, 280, 205, 242, 244, 243, 245, 282, 207, 244, 246, 245, 247, 284, 209, 246, 248, 247, 249, 286, 211, 248, 250, 249, 251, 213, 250, 252, 251, 253, 215, 252, 254, 253, 255, 292, 217, 254, 256, 255, 294, 219, 258, 257, 259, 296, 221, 258, 260, 259, 261, 298, 223, 260, 262, 261, 300, 225, 264, 263, 265, 302, 227, 264, 228, 267, 266, 268, 305, 230, 267, 307, 232, 271, 270, 272, 309, 234, 271, 273, 272, 311, 236, 275, 274, 276, 313, 238, 275, 277, 276, 278, 315, 240, 277, 279, 278, 280, 242, 279, 281, 280, 282, 319, 244, 281, 283, 282, 321, 246, 285, 284, 286, 323, 248, 285, 287, 286, 325, 289, 288, 290, 327, 289, 292, 329, 254, 291, 293, 292, 294, 331, 256, 293, 295, 294, 296, 333, 258, 295, 297, 296, 298, 335, 260, 297, 299, 298, 300, 337, 262, 299, 301, 300, 302, 339, 264, 301, 303, 302, 305, 342, 267, 304, 306, 305, 307, 344, 269, 306, 309, 346, 271, 308, 310, 309, 311, 273, 310, 312, 311, 313, 350, 275, 312, 314, 313, 352, 277, 316, 315, 317, 354, 316, 318, 317, 356, 281, 320, 319, 321, 358, 283, 320, 322, 321, 323, 360, 285, 322, 324, 323, 325, 362, 287, 324, 326, 325, 327, 364, 289, 326, 328, 327, 366, 291, 330, 329, 331, 368, 293, 330, 332, 331, 333, 370, 295, 332, 334, 333, 335, 297, 334, 336, 335, 337, 374, 299, 336, 338, 337, 339, 301, 338, 340, 339, 341, 378, 340, 304, 343, 342, 344, 381, 306, 343, 345, 344, 346, 383, 308, 345, 347, 346, 348, 385, 347, 349, 348, 350, 387, 312, 349, 351, 350, 352, 389, 314, 351, 353, 352, 354, 391, 316, 353, 355, 354, 356, 318, 355, 357, 356, 358, 320, 357, 359, 358, 360, 397, 322, 359, 361, 360, 362, 399, 324, 361, 363, 362, 401, 326, 365, 364, 366, 403, 328, 365, 367, 366, 368, 330, 367, 369, 368, 370, 407, 332, 369, 371, 370, 372, 409, 371, 373, 372, 374, 411, 336, 373, 375, 374, 377, 376, 378, 415, 340, 377, 417, 381, 343, 380, 382, 381, 383, 420, 345, 382, 384, 383, 422, 347, 386, 385, 387, 424, 349, 386, 388, 387, 389, 351, 388, 390, 389, 391, 428, 353, 390, 392, 391, 393, 430, 392, 394, 393, 395, 394, 396, 395, 397, 434, 359, 396, 398, 397, 436, 361, 400, 399, 438, 363, 402, 401, 403, 440, 365, 402, 404, 403, 405, 442, 404, 406, 405, 407, 444, 369, 406, 408, 407, 409, 371, 408, 410, 409, 411, 373, 410, 413, 450, 412, 414, 413, 415, 452, 377, 414, 416, 415, 417, 454, 379, 416, 419, 418, 420, 457, 382, 419, 421, 420, 422, 459, 384, 421, 423, 422, 424, 461, 386, 423, 463, 427, 426, 428, 390, 427, 429, 428, 430, 467, 392, 429, 431, 430, 432, 431, 433, 432, 434, 471, 396, 433, 435, 434, 436, 473, 398, 435, 437, 436, 438, 475, 400, 437, 439, 438, 440, 402, 439, 441, 440, 442, 479, 404, 441, 443, 442, 444, 481, 406, 443, 445, 444, 446, 445, 447, 446, 448, 485, 447, 487, 412, 451, 450, 489, 414, 453, 452, 454, 491, 416, 453, 455, 454, 493, 457, 494, 419, 456, 459, 496, 421, 458, 460, 459, 461, 498, 423, 460, 462, 461, 463, 500, 425, 462, 464, 463, 465, 502, 464, 466, 465, 467, 504, 429, 466, 468, 467, 469, 468, 470, 469, 471, 433, 470, 472, 471, 473, 510, 435, 472, 474, 473, 475, 512, 437, 474, 476, 475, 477, 514, 476, 478, 477, 479, 516, 441, 478, 480, 479, 481, 443, 480, 482, 481, 520, 484, 483, 485, 522, 447, 484, 486, 485, 487, 524, 449, 486, 488, 487, 489, 526, 451, 488, 490, 489, 491, 528, 453, 490, 492, 491, 493, 530, 455, 492, 456, 496, 533, 458, 495, 497, 496, 498, 535, 460, 497, 499, 498, 500, 462, 499, 501, 500, 502, 539, 464, 501, 503, 502, 504, 466, 503, 505, 504, 506, 543, 505, 507, 506, 508, 545, 507, 509, 508, 510, 472, 509, 512, 549, 474, 511, 513, 512, 514, 551, 476, 513, 515, 514, 553, 478, 518, 517, 519, 518, 557, 482, 521, 520, 522, 559, 484, 521, 523, 522, 561, 486, 525, 524, 563, 488, 527, 526, 528, 565, 490, 527, 529, 528, 530, 567, 492, 529, 531, 530, 569, 533, 570, 495, 532, 534, 533, 535, 572, 497, 534, 536, 535, 537, 574, 536, 538, 537, 539, 576, 501, 538, 540, 539, 578, 542, 541, 543, 580, 505, 542, 544, 543, 545, 507, 544, 547, 584, 546, 549, 586, 511, 548, 550, 549, 551, 588, 513, 550, 552, 551, 515, 554, 553, 555, 592, 554, 556, 555, 557, 594, 519, 556, 558, 557, 559, 521, 558, 561, 598, 523, 560, 562, 561, 563, 600, 525, 562, 564, 563, 565, 602, 527, 564, 566, 565, 567, 604, 529, 566, 568, 567, 569, 531, 568, 532, 571, 570, 609, 534, 573, 572, 574, 536, 573, 575, 574, 576, 613, 538, 575, 578, 615, 540, 577, 579, 578, 580, 617, 542, 579, 581, 580, 582, 619, 581, 583, 582, 621, 546, 585, 584, 586, 623, 548, 585, 588, 625, 550, 587, 589, 588, 590, 627, 589, 591, 590, 592, 629, 554, 591, 593, 592, 631, 556, 595, 594, 596, 633, 595, 597, 596, 598, 635, 560, 597, 599, 598, 600, 562, 599, 601, 600, 602, 639, 564, 601, 603, 602, 604, 641, 566, 603, 605, 604, 606, 643, 605, 607, 606, 645, 609, 646, 571, 608, 610, 609, 612, 611, 613, 650, 575, 612, 614, 613, 615, 577, 614, 617, 654, 579, 616, 618, 617, 619, 656, 581, 618, 620, 619, 621, 583, 620, 623, 660, 585, 622, 624, 623, 625, 587, 624, 626, 625, 627, 589, 626, 628, 627, 629, 666, 591, 628, 630, 629, 631, 668, 593, 630, 633, 670, 595, 632, 634, 633, 635, 672, 597, 634, 636, 635, 637, 674, 636, 638, 637, 639, 676, 601, 638, 640, 639, 678, 603, 642, 641, 643, 680, 605, 642, 644, 643, 645, 682, 607, 644, 608, 647, 646, 648, 684, 647, 649, 648, 650, 686, 612, 649, 651, 650, 652, 688, 651, 653, 652, 654, 616, 653, 655, 654, 656, 692, 618, 655, 657, 656, 658, 657, 659, 658, 660, 696, 622, 659, 661, 660, 698, 663, 662, 664, 700, 663, 665, 664, 666, 702, 628, 665, 667, 666, 668, 704, 630, 667, 669, 668, 670, 706, 632, 669, 671, 670, 708, 634, 673, 672, 710, 636, 675, 674, 712, 638, 678, 714, 640, 677, 679, 678, 680, 716, 642, 679, 681, 680, 682, 644, 681, 683, 682, 720, 647, 685, 684, 686, 649, 685, 687, 686, 651, 689, 688, 690, 689, 691, 690, 692, 655, 691, 693, 692, 694, 693, 695, 694, 696, 659, 695, 697, 696, 698, 661, 697, 699, 698, 700, 663, 699, 702, 665, 701, 703, 702, 704, 667, 703, 705, 704, 669, 707, 706, 708, 671, 707, 710, 673, 709, 711, 710, 712, 675, 711, 713, 712, 714, 677, 713, 715, 714, 716, 679, 715, 718, 717, 719, 718, 720, 683, 719];
weights = [9, 10, 9, 18, 18, 18, 15, 18, 13, 13, 18, 4, 18, 7, 7, 11, 11, 9, 9, 15, 11, 15, 1, 1, 15, 9, 15, 17, 17, 3, 16, 3, 17, 10, 17, 3, 3, 12, 5, 12, 11, 4, 4, 5, 5, 16, 16, 7, 13, 7, 19, 19, 17, 17, 17, 10, 10, 3, 18, 3, 5, 5, 1, 19, 1, 11, 11, 10, 14, 10, 14, 14, 6, 9, 6, 1, 8, 1, 17, 17, 5, 10, 11, 11, 14, 15, 10, 10, 18, 11, 4, 18, 7, 7, 7, 5, 5, 16, 11, 11, 16, 3, 3, 4, 6, 9, 4, 12, 12, 18, 16, 12, 1, 10, 12, 4, 4, 7, 5, 7, 19, 19, 3, 11, 1, 1, 4, 4, 17, 17, 9, 4, 13, 9, 10, 19, 17, 10, 15, 15, 11, 4, 18, 11, 18, 18, 7, 12, 19, 7, 10, 10, 13, 14, 13, 12, 12, 1, 11, 9, 1, 16, 16, 11, 9, 8, 11, 12, 8, 5, 12, 10, 10, 10, 12, 14, 12, 3, 3, 16, 1, 11, 16, 3, 3, 13, 16, 7, 13, 5, 5, 13, 11, 16, 16, 16, 6, 16, 9, 9, 3, 7, 18, 3, 6, 6, 12, 17, 1, 12, 16, 16, 8, 8, 17, 17, 1, 3, 2, 2, 7, 7, 9, 4, 9, 3, 10, 19, 3, 12, 12, 4, 11, 4, 4, 18, 12, 9, 9, 1, 10, 1, 1, 1, 3, 10, 11, 3, 11, 11, 6, 9, 6, 3, 3, 9, 11, 8, 9, 3, 3, 11, 8, 10, 11, 15, 15, 1, 7, 1, 1, 18, 18, 14, 9, 16, 14, 15, 15, 19, 7, 13, 19, 14, 4, 14, 14, 19, 7, 14, 12, 12, 7, 15, 17, 7, 10, 10, 5, 16, 5, 2, 2, 1, 16, 1, 1, 16, 16, 10, 3, 10, 13, 13, 13, 14, 14, 13, 10, 13, 6, 6, 1, 16, 11, 1, 15, 15, 16, 18, 16, 13, 13, 10, 10, 13, 13, 1, 9, 10, 1, 5, 5, 3, 13, 3, 8, 8, 3, 5, 11, 3, 14, 14, 18, 8, 12, 12, 12, 18, 3, 7, 18, 16, 16, 15, 8, 9, 15, 9, 9, 1, 16, 7, 1, 6, 6, 11, 8, 4, 11, 1, 1, 3, 19, 3, 3, 3, 13, 15, 13, 1, 1, 14, 14, 16, 14, 5, 16, 5, 3, 3, 12, 9, 3, 12, 14, 14, 1, 14, 13, 1, 5, 5, 15, 8, 15, 17, 17, 7, 4, 16, 7, 4, 12, 4, 11, 8, 10, 11, 14, 14, 9, 9, 9, 9, 12, 12, 16, 9, 13, 16, 11, 11, 3, 16, 5, 3, 7, 7, 15, 18, 9, 9, 11, 2, 12, 11, 3, 18, 18, 3, 4, 8, 3, 16, 16, 18, 13, 16, 18, 2, 2, 7, 3, 8, 7, 14, 14, 1, 14, 1, 12, 12, 11, 8, 11, 17, 17, 18, 13, 14, 18, 7, 7, 1, 6, 1, 14, 14, 12, 13, 9, 12, 7, 7, 5, 17, 14, 5, 2, 2, 11, 2, 8, 11, 14, 14, 5, 3, 4, 5, 9, 9, 11, 13, 12, 11, 3, 3, 9, 8, 18, 18, 13, 9, 9, 13, 13, 2, 9, 13, 13, 10, 16, 13, 18, 18, 6, 6, 15, 6, 1, 2, 2, 1, 6, 6, 16, 1, 17, 4, 1, 14, 18, 13, 14, 9, 9, 1, 5, 3, 1, 14, 14, 5, 6, 14, 5, 4, 4, 5, 8, 8, 5, 6, 6, 10, 12, 13, 10, 10, 10, 13, 6, 6, 13, 8, 8, 5, 15, 13, 5, 4, 4, 3, 10, 17, 3, 18, 18, 8, 13, 2, 8, 16, 16, 14, 16, 3, 14, 7, 7, 15, 13, 15, 14, 14, 11, 9, 11, 10, 10, 13, 15, 9, 13, 19, 19, 19, 2, 12, 12, 12, 15, 10, 12, 1, 1, 9, 15, 6, 9, 3, 3, 4, 2, 4, 4, 2, 2, 16, 2, 17, 11, 11, 6, 10, 18, 6, 18, 5, 3, 3, 19, 18, 6, 19, 5, 5, 6, 8, 14, 14, 14, 9, 12, 14, 1, 1, 12, 8, 6, 12, 12, 12, 16, 15, 16, 13, 13, 8, 10, 10, 8, 12, 12, 16, 13, 10, 10, 3, 14, 16, 3, 9, 9, 19, 17, 17, 10, 8, 10, 10, 18, 15, 10, 10, 10, 17, 9, 19, 17, 10, 10, 6, 11, 15, 6, 18, 18, 11, 13, 15, 11, 12, 12, 1, 3, 4, 1, 3, 3, 14, 9, 2, 14, 13, 13, 9, 3, 10, 9, 16, 16, 15, 13, 18, 15, 12, 6, 18, 12, 2, 2, 2, 6, 2, 1, 1, 15, 4, 9, 15, 15, 15, 11, 8, 11, 11, 10, 19, 10, 1, 1, 4, 10, 11, 11, 3, 17, 16, 3, 5, 5, 17, 16, 14, 17, 5, 5, 10, 2, 19, 10, 16, 16, 4, 17, 8, 4, 5, 5, 10, 18, 10, 10, 5, 13, 9, 5, 15, 15, 15, 18, 11, 15, 6, 6, 10, 13, 10, 18, 18, 7, 14, 3, 7, 18, 18, 6, 9, 6, 16, 16, 10, 4, 10, 3, 8, 8, 1, 11, 13, 1, 9, 9, 16, 11, 6, 16, 5, 5, 19, 15, 19, 13, 13, 15, 13, 4, 15, 1, 1, 4, 2, 11, 4, 1, 1, 6, 15, 19, 6, 17, 17, 16, 4, 16, 17, 17, 15, 17, 15, 1, 1, 16, 5, 16, 16, 5, 5, 2, 9, 2, 2, 2, 2, 3, 17, 18, 18, 19, 1, 10, 19, 11, 11, 5, 13, 5, 8, 8, 18, 1, 18, 18, 10, 10, 15, 4, 15, 2, 2, 12, 16, 14, 12, 5, 5, 5, 5, 18, 6, 4, 18, 2, 17, 11, 17, 13, 13, 17, 1, 11, 17, 2, 2, 9, 15, 5, 5, 4, 14, 13, 4, 13, 13, 12, 2, 12, 1, 1, 9, 1, 15, 9, 17, 17, 1, 9, 1, 14, 14, 5, 5, 16, 16, 18, 15, 5, 18, 4, 4, 17, 9, 4, 4, 17, 3, 1, 1, 10, 12, 1, 10, 14, 14, 12, 5, 12, 7, 7, 5, 19, 1, 5, 18, 18, 12, 4, 12, 2, 2, 4, 16, 4, 17, 14, 17, 7, 7, 6, 8, 6, 6, 8, 8, 13, 6, 2, 13, 2, 2, 5, 18, 1, 5, 16, 16, 1, 4, 9, 1, 13, 13, 14, 2, 14, 14, 16, 15, 15, 5, 1, 5, 6, 6, 15, 14, 9, 15, 1, 1, 7, 7, 1, 1, 11, 2, 15, 11, 17, 17, 14, 6, 17, 14, 18, 18, 4, 17, 17, 4, 3, 3, 11, 12, 11, 6, 6, 12, 16, 5, 12, 16, 16, 10, 15, 19, 10, 3, 3, 18, 18, 5, 5, 8, 19, 8, 11, 14, 1, 1, 17, 8, 1, 1, 18, 12, 6, 18, 7, 7, 17, 6, 2, 18, 6, 15, 16, 4, 15, 17, 17, 2, 3, 2, 2, 14, 14, 15, 15, 16, 15, 17, 17, 1, 17, 1, 11, 11, 12, 4, 14, 12, 15, 15, 14, 14, 4, 4, 8, 2, 8, 6, 6, 18, 6, 6, 18, 16, 16, 13, 7, 17, 13, 4, 4, 12, 11, 12, 5, 5, 14, 10, 16, 14, 1, 1, 12, 15, 12, 4, 4, 3, 17, 17, 7, 15, 19, 7, 5, 5, 2, 5, 11, 2, 3, 3, 4, 17, 17, 4, 2, 2, 4, 15, 12, 4, 1, 1, 11, 11, 17, 11, 2, 5, 17, 16, 5, 19, 19, 6, 6, 3, 6, 9, 9, 17, 15, 17, 5, 5, 10, 5, 17, 10, 2, 2, 6, 4, 6, 13, 13, 12, 6, 12, 11, 11, 19, 14, 19, 4, 4, 19, 6, 19, 6, 14, 7, 6, 6, 6, 11, 1, 11, 11, 13, 13, 14, 10, 14, 14, 11, 11, 4, 3, 15, 15, 5, 5, 15, 5, 5, 5, 4, 5, 14, 14, 11, 17, 8, 8, 1, 19, 15, 1, 10, 10, 4, 9, 11, 4, 4, 4, 6, 15, 1, 17, 15, 9, 9, 10, 8, 6, 10, 11, 11, 11, 18, 11, 5, 5, 6, 14, 5, 6, 15, 15, 1, 9, 9, 19, 19, 6, 19, 5, 5, 18, 14, 18, 6, 2, 6, 17, 3, 14, 17, 9, 9, 15, 16, 1, 15, 7, 7, 14, 1, 1, 5, 10, 5, 1, 1, 7, 18, 4, 7, 3, 3, 1, 5, 1, 4, 17, 4, 4, 5, 5, 14, 4, 11, 14, 13, 13, 13, 7, 19, 13, 12, 12, 12, 9, 9, 12, 14, 14, 14, 6, 14, 1, 6, 6, 8, 8, 18, 18, 16, 18, 16, 3, 3, 7, 6, 14, 7, 13, 3, 1, 13, 4, 4, 3, 5, 19, 3, 7, 7, 8, 8, 8, 18, 18, 8, 2, 4, 4, 11, 2, 3, 11, 7, 7, 16, 7, 8, 8, 17, 7, 17, 12, 12, 10, 1, 10, 10, 3, 3, 12, 18, 16, 16, 14, 11, 14, 11, 11, 6, 6, 17, 6, 6, 6, 12, 4, 12, 16, 16, 1, 5, 7, 1, 3, 3, 5, 19, 9, 5, 5, 5, 10, 19, 10, 3, 3, 10, 15, 13, 8, 15, 4, 4, 18, 18, 3, 15, 6, 3, 13, 13, 3, 3, 3, 10, 18, 5, 10, 15, 15, 7, 3, 8, 7, 18, 18, 9, 8, 9, 12, 3, 2, 12, 6, 6, 7, 7, 7, 1, 1, 2, 7, 2, 12, 12, 8, 14, 1, 8, 3, 3, 8, 12, 12, 8, 12, 14, 11, 12, 5, 5, 8, 5, 6, 8, 6, 6, 9, 13, 9, 15, 15, 9, 6, 5, 9, 1, 1, 12, 19, 10, 10, 1, 10, 19, 1, 4, 4, 7, 3, 10, 7, 13, 5, 5, 8, 6, 8, 15, 15, 8, 14, 15, 8, 16, 16, 8, 19, 8, 7, 7, 13, 18, 13, 4, 4, 8, 17, 3, 8, 9, 9, 7, 7, 3, 3, 7, 6, 3, 7, 7, 7, 15, 15, 15, 8, 1, 8, 6, 6, 7, 11, 14, 7, 14, 14, 9, 10, 12, 9, 12, 12, 10, 15, 14, 10, 16, 16, 19, 5, 10, 10, 18, 13, 4, 4, 14, 6, 14, 14, 12, 14, 18, 18, 5, 19, 10, 5, 8, 8, 7, 3, 7, 16, 16, 14, 6, 10, 10, 4, 14, 4, 13, 13, 19, 18, 18, 10, 10, 12, 12, 10, 17, 10, 9, 9, 1, 1, 9, 9, 14, 6, 14, 15, 15, 1, 15, 1, 6, 6, 19, 1, 19, 17, 11, 17, 2, 2, 7, 10, 7, 16, 16, 15, 9, 9, 1, 19, 1, 8, 18, 8, 19, 19, 1, 14, 1, 4, 4, 12, 14, 12, 1, 1, 5, 19, 5, 3, 3, 17, 17, 11, 14, 11];
start = 1;
end= 720;
tasks = 2;
task = array2d(1..tasks, 1..nodes, [1, 0, 0, 0, 0, 0, 0, 0, 0, 0, 0, 0, 0, 0, 0, 0, 0, 0, 0, 0, 0, 0, 0, 0, 0, 0, 0, 0, 0, 0, 0, 0, 0, 0, 0, 0, 0, 1, 0, 0, 0, 0, 0, 0, 0, 0, 0, 0, 0, 0, 0, 0, 0, 0, 0, 0, 0, 0, 0, 0, 0, 0, 0, 0, 0, 0, 0, 0, 0, 0, 0, 0, 0, 0, 0, 0, 0, 0, 0, 0, 0, 0, 0, 0, 0, 0, 0, 0, 0, 0, 0, 0, 0, 0, 0, 0, 0, 0, 0, 0, 0, 0, 0, 0, 0, 0, 0, 0, 0, 0, 0, 0, 0, 0, 0, 0, 0, 0, 0, 0, 0, 0, 0, 0, 0, 0, 0, 0, 0, 0, 0, 0, 0, 0, 0, 0, 0, 0, 0, 0, 0, 0, 0, 0, 0, 0, 0, 0, 0, 0, 0, 0, 0, 0, 0, 1, 0, 0, 0, 0, 0, 0, 0, 0, 0, 0, 0, 0, 0, 0, 0, 0, 0, 0, 0, 0, 0, 0, 0, 0, 0, 0, 0, 0, 0, 0, 0, 0, 0, 0, 0, 0, 0, 1, 0, 0, 0, 0, 0, 0, 0, 0, 0, 0, 0, 0, 0, 0, 0, 0, 0, 0, 0, 0, 0, 0, 0, 0, 0, 0, 0, 0, 0, 0, 0, 0, 0, 0, 0, 0, 0, 0, 1, 0, 0, 0, 0, 0, 0, 0, 0, 0, 0, 0, 0, 0, 0, 0, 0, 0, 0, 0, 0, 0, 0, 0, 0, 0, 0, 0, 0, 0, 0, 0, 0, 0, 0, 0, 0, 0, 0, 0, 0, 0, 0, 0, 0, 0, 0, 0, 0, 0, 0, 0, 0, 0, 0, 0, 0, 0, 0, 0, 0, 0, 0, 0, 0, 0, 0, 0, 0, 0, 0, 0, 0, 0, 0, 0, 0, 0, 0, 0, 0, 0, 0, 0, 0, 0, 0, 0, 0, 0, 0, 0, 0, 0, 0, 0, 0, 0, 0, 0, 0, 0, 0, 0, 0, 0, 0, 0, 0, 0, 0, 0, 0, 0, 0, 0, 0, 1, 0, 0, 0, 0, 0, 0, 0, 0, 0, 0, 0, 0, 0, 0, 0, 0, 0, 0, 0, 0, 0, 0, 0, 0, 0, 0, 0, 0, 0, 0, 0, 0, 0, 0, 0, 0, 0, 0, 0, 0, 0, 0, 0, 0, 0, 0, 0, 0, 0, 0, 0, 0, 0, 0, 0, 0, 0, 0, 0, 0, 0, 0, 0, 0, 0, 0, 0, 0, 0, 0, 0, 0, 0, 0, 0, 0, 0, 0, 0, 0, 0, 0, 1, 0, 0, 0, 0, 0, 0, 0, 0, 0, 0, 0, 0, 0, 0, 0, 0, 0, 0, 0, 0, 0, 0, 0, 0, 0, 0, 0, 0, 0, 0, 0, 0, 0, 0, 0, 0, 0, 0, 0, 1, 0, 0, 0, 0, 0, 0, 0, 0, 0, 0, 0, 0, 0, 0, 0, 0, 0, 0, 0, 0, 0, 0, 0, 0, 0, 0, 0, 0, 0, 0, 0, 0, 0, 0, 0, 0, 0, 0, 0, 0, 0, 0, 0, 0, 0, 0, 0, 0, 0, 0, 0, 0, 0, 0, 0, 0, 0, 0, 0, 0, 0, 0, 0, 0, 0, 0, 0, 0, 0, 0, 0, 0, 0, 0, 0, 0, 0, 0, 0, 0, 1, 0, 1, 0, 0, 0, 0, 0, 0, 0, 0, 0, 0, 0, 0, 0, 0, 0, 0, 0, 0, 0, 0, 0, 0, 0, 0, 0, 0, 0, 0, 0, 0, 0, 0, 0, 0, 0, 0, 0, 0, 0, 0, 0, 0, 0, 0, 0, 0, 1, 1, 1, 0, 0, 0, 0, 0, 0, 0, 0, 0, 0, 0, 0, 0, 0, 0, 0, 0, 0, 0, 0, 0, 0, 0, 0, 0, 0, 0, 0, 0, 0, 0, 0, 0, 0, 0, 0, 0, 0, 1, 0, 0, 0, 0, 0, 0, 0, 0, 0, 0, 0, 0, 0, 0, 0, 0, 0, 0, 0, 0, 0, 0, 0, 0, 0, 0, 0, 0, 0, 0, 0, 0, 0, 0, 0, 0, 0, 0, 0, 0, 0, 0, 0, 0, 0, 0, 0, 0, 0, 0, 0, 0, 0, 0, 0, 0, 0, 0, 0, 0, 0, 0, 0, 0, 0, 0, 0, 0, 0, 0, 0, 0, 0, 0, 0, 0, 0, 0, 0, 0, 0, 0, 0, 0, 0, 0, 0, 0, 0, 0, 0, 0, 0, 0, 0, 0, 0, 0, 0, 0, 0, 0, 0, 0, 0, 0, 0, 0, 0, 0, 0, 0, 0, 0, 0, 0, 0, 0, 0, 0, 0, 0, 0, 0, 0, 0, 0, 0, 0, 0, 0, 0, 0, 0, 0, 0, 0, 0, 0, 0, 0, 0, 0, 0, 0, 0, 0, 0, 0, 0, 0, 0, 0, 0, 0, 0, 0, 0, 0, 0, 0, 0, 0, 0, 0, 0, 0, 0, 0, 0, 0, 0, 0, 0, 0, 0, 0, 0, 0, 0, 0, 0, 0, 0, 0, 0, 0, 0, 0, 0, 0, 0, 1, 0, 0, 0, 0, 0, 0, 0, 0, 0, 0, 0, 0, 0, 0, 0, 0, 0, 0, 0, 0, 0, 0, 0, 0, 0, 0, 0, 0, 0, 0, 0, 0, 0, 0, 0, 0, 0, 1, 0, 0, 0, 0, 0, 0, 0, 0, 0, 0, 0, 0, 0, 0, 0, 0, 0, 0, 0, 0, 0, 0, 0, 0, 0, 0, 0, 0, 0, 0, 0, 0, 0, 0, 0, 0, 0, 0, 0, 0, 0, 0, 0, 0, 0, 0, 0, 0, 0, 0, 0, 0, 0, 0, 0, 0, 0, 0, 0, 0, 0, 0, 0, 0, 0, 0, 0, 0, 0, 0, 0, 0, 0, 0, 0, 0, 0, 0, 0, 0, 0, 0, 0, 0, 0, 0, 0, 0, 0, 0, 0, 0, 0, 0, 0, 0, 0, 0, 0, 0, 0, 0, 0, 0, 0, 0, 0, 0, 0, 0, 0, 0, 0, 0, 0, 0, 0, 1, 0, 0, 0, 0, 0, 0, 0, 0, 0, 0, 0, 0, 0, 0, 0, 0, 0, 0, 0, 0, 0, 0, 0, 0, 0, 0, 0, 0, 0, 0, 0, 0, 0, 0, 0, 0, 0, 0, 0, 0, 0, 0, 0, 0, 0, 0, 0, 0, 0, 0, 0, 0, 0, 0, 0, 0, 0, 0, 0, 0, 0, 0, 0, 0, 0, 0, 0, 0, 0, 0, 0, 0, 0, 0, 0, 0, 0, 0, 0, 0, 0, 0, 0, 0, 0, 0, 0, 0, 0, 0, 0, 0, 0, 0, 0, 0, 0, 0, 0, 0, 0, 0, 0, 0, 0, 0, 0, 0, 0, 0, 0, 0, 0, 0, 0, 0, 0, 0, 0, 0, 0, 0, 0, 0, 0, 0, 0, 0, 0, 0, 0, 0, 0, 0, 0, 0, 0, 0, 0, 0, 0, 0, 0, 0, 0, 0, 0, 0, 0, 0, 0, 0, 0, 0, 1, 1, 0, 0, 0, 0, 0, 0, 0, 0, 0, 0, 0, 0, 0, 0, 0, 0, 0, 0, 0, 0, 0, 0, 0, 0, 0, 0, 0, 0, 0, 0, 0, 0, 0, 0, 0, 0, 0, 0, 0, 0, 0, 0, 1, 0, 0, 0, 0, 0, 0, 0, 0, 0, 0, 0, 0, 0, 0, 0, 0, 0, 0, 0, 0, 0, 0, 0, 0, 0, 0, 0, 0, 0, 0, 0, 0, 0, 0, 0, 0, 0, 0, 0, 1, 0, 0, 0, 0, 0, 0, 0, 0, 0, 0, 1, 0, 0, 0, 0, 0, 0, 0, 0, 0, 0, 0, 0, 0, 0, 0, 0, 0, 0, 0, 0, 0, 0, 0, 0, 0, 0, 0, 0, 0, 1, 0, 0, 0, 0, 0, 0, 0, 1, 0, 0, 0, 0, 0, 0, 0, 0, 0, 0, 0, 0, 0, 0, 0, 0, 0, 0, 0, 0, 0, 0, 0, 0, 0, 0, 0, 0, 0, 0, 0, 0, 0, 0, 0, 0, 0, 0, 0, 1, 1, 0, 0, 0, 0, 0, 0, 0, 0, 0, 0, 0, 0, 0, 0, 0, 0, 0, 0, 0, 0, 0, 0, 0, 0, 0, 0, 0, 0, 0, 0, 0, 0, 0, 0, 0, 0, 0, 0, 0, 0, 0, 0, 0, 0, 0, 0, 0, 0, 0, 0, 0, 0, 0, 0, 0, 0, 0, 0, 0, 0, 0, 0, 0, 0, 0, 0, 0, 0, 0, 0, 0, 0, 0, 0, 0, 0, 0, 0, 0, 0, 1, 0, 0, 0, 0, 0, 0, 0, 0, 0, 0, 0, 0, 0, 0, 0, 0, 0, 0, 0, 0, 0, 0, 0, 0, 0, 0, 0, 0, 0, 0, 0, 0, 0, 0, 0, 0, 1]);
